; SLOAD PUSH cw_3 PUSH cw_2 SLOAD SWAP2 SWAP1 => PUSH cw_2 SLOAD SWAP1 SLOAD PUSH cw_3
(set-option :produce-proofs true)
; 
(set-info :status unknown)
(declare-fun storage_t ((_ BitVec 256) (_ BitVec 256) (_ BitVec 256) (_ BitVec 256) (_ BitVec 256) Int (_ BitVec 256)) (_ BitVec 256))
(declare-fun w_2 () (_ BitVec 256))
(declare-fun w_3 () (_ BitVec 256))
(declare-fun storage_s ((_ BitVec 256) (_ BitVec 256) (_ BitVec 256) (_ BitVec 256) (_ BitVec 256) Int (_ BitVec 256)) (_ BitVec 256))
(declare-fun exc_halt_t (Int) Bool)
(declare-fun exc_halt_s (Int) Bool)
(declare-fun stack_t ((_ BitVec 256) (_ BitVec 256) (_ BitVec 256) (_ BitVec 256) (_ BitVec 256) Int (_ BitVec 6)) (_ BitVec 256))
(declare-fun stack_s ((_ BitVec 256) (_ BitVec 256) (_ BitVec 256) (_ BitVec 256) (_ BitVec 256) Int (_ BitVec 6)) (_ BitVec 256))
(declare-fun sc_t (Int) (_ BitVec 6))
(declare-fun sc_s (Int) (_ BitVec 6))
(declare-fun used_gas_t ((_ BitVec 256) (_ BitVec 256) (_ BitVec 256) (_ BitVec 256) (_ BitVec 256) Int) Int)
(declare-fun used_gas_s ((_ BitVec 256) (_ BitVec 256) (_ BitVec 256) (_ BitVec 256) (_ BitVec 256) Int) Int)
(assert
 (exists ((x_0 (_ BitVec 256)) (x_SLOAD_0 (_ BitVec 256)) (x_SLOAD_1 (_ BitVec 256)) )(let (($x3968 (forall ((w (_ BitVec 256)) )(let ((?x11298 (storage_t x_0 x_SLOAD_0 x_SLOAD_1 w_3 w_2 5 w)))
 (let ((?x3890 (storage_s x_0 x_SLOAD_0 x_SLOAD_1 w_3 w_2 6 w)))
 (= ?x3890 ?x11298))))
 ))
 (let (($x886 (exc_halt_t 5)))
 (let (($x772 (exc_halt_s 6)))
 (let (($x889 (= $x772 $x886)))
 (let (($x7343 (forall ((n (_ BitVec 6)) )(let ((?x9860 (stack_t x_0 x_SLOAD_0 x_SLOAD_1 w_3 w_2 5 n)))
 (let ((?x855 (stack_s x_0 x_SLOAD_0 x_SLOAD_1 w_3 w_2 6 n)))
 (let (($x11299 (= ?x855 ?x9860)))
 (or (bvsle (sc_t 5) n) $x11299)))))
 ))
 (let ((?x919 (sc_t 5)))
 (let ((?x926 (sc_s 6)))
 (let (($x929 (= ?x926 ?x919)))
 (let ((?x11318 (used_gas_t x_0 x_SLOAD_0 x_SLOAD_1 w_3 w_2 0)))
 (let ((?x11317 (used_gas_s x_0 x_SLOAD_0 x_SLOAD_1 w_3 w_2 0)))
 (let (($x11322 (= ?x11317 ?x11318)))
 (let (($x8516 (forall ((w (_ BitVec 256)) )(let ((?x11311 (storage_t x_0 x_SLOAD_0 x_SLOAD_1 w_3 w_2 0 w)))
 (let ((?x7402 (storage_s x_0 x_SLOAD_0 x_SLOAD_1 w_3 w_2 0 w)))
 (= ?x7402 ?x11311))))
 ))
 (let (($x56 (exc_halt_t 0)))
 (let (($x57 (exc_halt_s 0)))
 (let (($x58 (= $x57 $x56)))
 (let (($x1520 (forall ((n (_ BitVec 6)) )(let ((?x63 (sc_t 0)))
 (let (($x11524 (bvsle ?x63 n)))
 (let ((?x7052 (stack_t x_0 x_SLOAD_0 x_SLOAD_1 w_3 w_2 0 n)))
 (let ((?x1524 (stack_s x_0 x_SLOAD_0 x_SLOAD_1 w_3 w_2 0 n)))
 (let (($x8833 (= ?x1524 ?x7052)))
 (or $x8833 $x11524)))))))
 ))
 (let ((?x63 (sc_t 0)))
 (let ((?x72 (sc_s 0)))
 (let (($x73 (= ?x72 ?x63)))
 (let (($x3723 (exc_halt_t 4)))
 (let (($x6754 (or $x3723 (not (= ((_ extract 6 6) (bvadd (_ bv1 7) (concat (_ bv0 1) (sc_t 4)))) (_ bv0 1))))))
 (let (($x9254 (forall ((w (_ BitVec 256)) )(let ((?x11313 (storage_t x_0 x_SLOAD_0 x_SLOAD_1 w_3 w_2 4 w)))
 (let ((?x11298 (storage_t x_0 x_SLOAD_0 x_SLOAD_1 w_3 w_2 5 w)))
 (= ?x11298 ?x11313))))
 ))
 (let (($x8957 (forall ((n (_ BitVec 6)) )(let ((?x2065 (stack_t x_0 x_SLOAD_0 x_SLOAD_1 w_3 w_2 4 n)))
 (let ((?x9860 (stack_t x_0 x_SLOAD_0 x_SLOAD_1 w_3 w_2 5 n)))
 (let ((?x3757 (sc_t 4)))
 (let (($x5280 (bvsle ?x3757 n)))
 (or $x5280 (= ?x9860 ?x2065)))))))
 ))
 (let (($x6859 (= (used_gas_t x_0 x_SLOAD_0 x_SLOAD_1 w_3 w_2 5) (+ 3 (used_gas_t x_0 x_SLOAD_0 x_SLOAD_1 w_3 w_2 4)))))
 (let (($x5793 (= $x3723 (or (exc_halt_t 3) (not (bvsle (_ bv0 6) (bvadd (_ bv63 6) (sc_t 3))))))))
 (let (($x978 (forall ((w (_ BitVec 256)) )(let ((?x2042 (storage_t x_0 x_SLOAD_0 x_SLOAD_1 w_3 w_2 3 w)))
 (let ((?x11313 (storage_t x_0 x_SLOAD_0 x_SLOAD_1 w_3 w_2 4 w)))
 (= ?x11313 ?x2042))))
 ))
 (let (($x6395 (forall ((n (_ BitVec 6)) )(let ((?x372 (stack_t x_0 x_SLOAD_0 x_SLOAD_1 w_3 w_2 3 n)))
 (let ((?x2065 (stack_t x_0 x_SLOAD_0 x_SLOAD_1 w_3 w_2 4 n)))
 (or (bvsle (bvadd (_ bv63 6) (sc_t 3)) n) (= ?x2065 ?x372)))))
 ))
 (let ((?x11842 (sc_t 3)))
 (let ((?x3757 (sc_t 4)))
 (let (($x9721 (= ?x3757 ?x11842)))
 (let ((?x6240 (used_gas_t x_0 x_SLOAD_0 x_SLOAD_1 w_3 w_2 4)))
 (let ((?x11478 (bvadd (_ bv63 6) ?x11842)))
 (let ((?x7229 (stack_t x_0 x_SLOAD_0 x_SLOAD_1 w_3 w_2 3 ?x11478)))
 (let (($x6610 (= (stack_t x_0 x_SLOAD_0 x_SLOAD_1 w_3 w_2 4 (bvadd (_ bv63 6) ?x3757)) (storage_t x_0 x_SLOAD_0 x_SLOAD_1 w_3 w_2 3 ?x7229))))
 (let (($x4755 (exc_halt_t 3)))
 (let (($x6290 (= $x4755 (or (exc_halt_t 2) (not (bvsle (_ bv0 6) (bvadd (_ bv62 6) (sc_t 2))))))))
 (let (($x970 (forall ((w (_ BitVec 256)) )(let ((?x6471 (storage_t x_0 x_SLOAD_0 x_SLOAD_1 w_3 w_2 2 w)))
 (let ((?x2042 (storage_t x_0 x_SLOAD_0 x_SLOAD_1 w_3 w_2 3 w)))
 (= ?x2042 ?x6471))))
 ))
 (let (($x5917 (forall ((n (_ BitVec 6)) )(let ((?x4056 (sc_t 2)))
 (let ((?x11358 (bvadd (_ bv62 6) ?x4056)))
 (let (($x9214 (bvsle ?x11358 n)))
 (let ((?x8196 (stack_t x_0 x_SLOAD_0 x_SLOAD_1 w_3 w_2 2 n)))
 (let ((?x372 (stack_t x_0 x_SLOAD_0 x_SLOAD_1 w_3 w_2 3 n)))
 (or (= ?x372 ?x8196) $x9214)))))))
 ))
 (let ((?x5610 (used_gas_t x_0 x_SLOAD_0 x_SLOAD_1 w_3 w_2 3)))
 (let ((?x4056 (sc_t 2)))
 (let ((?x180 (bvadd (_ bv63 6) ?x4056)))
 (let ((?x71 (stack_t x_0 x_SLOAD_0 x_SLOAD_1 w_3 w_2 2 ?x180)))
 (let (($x7644 (= (stack_t x_0 x_SLOAD_0 x_SLOAD_1 w_3 w_2 3 (bvadd (_ bv62 6) ?x11842)) ?x71)))
 (let (($x4774 (= ?x7229 (stack_t x_0 x_SLOAD_0 x_SLOAD_1 w_3 w_2 2 (bvadd (_ bv62 6) ?x4056)))))
 (let (($x903 (exc_halt_t 2)))
 (let (($x4091 (= $x903 (or (exc_halt_t 1) (not (bvsle (_ bv0 6) (bvadd (_ bv63 6) (sc_t 1))))))))
 (let (($x3909 (forall ((w (_ BitVec 256)) )(let ((?x10569 (storage_t x_0 x_SLOAD_0 x_SLOAD_1 w_3 w_2 1 w)))
 (let ((?x6471 (storage_t x_0 x_SLOAD_0 x_SLOAD_1 w_3 w_2 2 w)))
 (= ?x6471 ?x10569))))
 ))
 (let (($x989 (forall ((n (_ BitVec 6)) )(let ((?x6997 (stack_t x_0 x_SLOAD_0 x_SLOAD_1 w_3 w_2 1 n)))
 (let ((?x8196 (stack_t x_0 x_SLOAD_0 x_SLOAD_1 w_3 w_2 2 n)))
 (or (= ?x8196 ?x6997) (bvsle (bvadd (_ bv63 6) (sc_t 1)) n)))))
 ))
 (let ((?x2478 (used_gas_t x_0 x_SLOAD_0 x_SLOAD_1 w_3 w_2 2)))
 (let ((?x7416 (storage_t x_0 x_SLOAD_0 x_SLOAD_1 w_3 w_2 1 (stack_t x_0 x_SLOAD_0 x_SLOAD_1 w_3 w_2 1 (bvadd (_ bv63 6) (sc_t 1))))))
 (let (($x1920 (exc_halt_t 1)))
 (let (($x1553 (= $x1920 (or $x56 (not (= ((_ extract 6 6) (bvadd (_ bv1 7) (concat (_ bv0 1) ?x63))) (_ bv0 1)))))))
 (let (($x5728 (forall ((w (_ BitVec 256)) )(let ((?x11311 (storage_t x_0 x_SLOAD_0 x_SLOAD_1 w_3 w_2 0 w)))
 (let ((?x10569 (storage_t x_0 x_SLOAD_0 x_SLOAD_1 w_3 w_2 1 w)))
 (= ?x10569 ?x11311))))
 ))
 (let (($x2568 (forall ((n (_ BitVec 6)) )(let ((?x63 (sc_t 0)))
 (let (($x11524 (bvsle ?x63 n)))
 (let ((?x7052 (stack_t x_0 x_SLOAD_0 x_SLOAD_1 w_3 w_2 0 n)))
 (let ((?x6997 (stack_t x_0 x_SLOAD_0 x_SLOAD_1 w_3 w_2 1 n)))
 (or (= ?x6997 ?x7052) $x11524))))))
 ))
 (let ((?x4023 (sc_t 1)))
 (let (($x5867 (= ?x4023 (bvadd (_ bv1 6) ?x63))))
 (let (($x3359 (= $x772 (or (exc_halt_s 5) (not (bvsle (_ bv0 6) (bvadd (_ bv62 6) (sc_s 5))))))))
 (let (($x2787 (forall ((w (_ BitVec 256)) )(let ((?x5375 (storage_s x_0 x_SLOAD_0 x_SLOAD_1 w_3 w_2 5 w)))
 (let ((?x3890 (storage_s x_0 x_SLOAD_0 x_SLOAD_1 w_3 w_2 6 w)))
 (= ?x3890 ?x5375))))
 ))
 (let (($x6015 (forall ((n (_ BitVec 6)) )(let ((?x7523 (stack_s x_0 x_SLOAD_0 x_SLOAD_1 w_3 w_2 5 n)))
 (let ((?x855 (stack_s x_0 x_SLOAD_0 x_SLOAD_1 w_3 w_2 6 n)))
 (or (bvsle (bvadd (_ bv62 6) (sc_s 5)) n) (= ?x855 ?x7523)))))
 ))
 (let (($x3116 (= (used_gas_s x_0 x_SLOAD_0 x_SLOAD_1 w_3 w_2 6) (+ 3 (used_gas_s x_0 x_SLOAD_0 x_SLOAD_1 w_3 w_2 5)))))
 (let ((?x805 (sc_s 5)))
 (let ((?x4799 (bvadd (_ bv63 6) ?x805)))
 (let ((?x9844 (stack_s x_0 x_SLOAD_0 x_SLOAD_1 w_3 w_2 5 ?x4799)))
 (let (($x5976 (= (stack_s x_0 x_SLOAD_0 x_SLOAD_1 w_3 w_2 6 (bvadd (_ bv62 6) ?x926)) ?x9844)))
 (let ((?x1248 (bvadd (_ bv62 6) ?x805)))
 (let ((?x792 (stack_s x_0 x_SLOAD_0 x_SLOAD_1 w_3 w_2 5 ?x1248)))
 (let (($x2946 (= (stack_s x_0 x_SLOAD_0 x_SLOAD_1 w_3 w_2 6 (bvadd (_ bv63 6) ?x926)) ?x792)))
 (let (($x3979 (exc_halt_s 5)))
 (let (($x6811 (= $x3979 (or (exc_halt_s 4) (not (bvsle (_ bv0 6) (bvadd (_ bv61 6) (sc_s 4))))))))
 (let (($x6481 (forall ((w (_ BitVec 256)) )(let ((?x5889 (storage_s x_0 x_SLOAD_0 x_SLOAD_1 w_3 w_2 4 w)))
 (let ((?x5375 (storage_s x_0 x_SLOAD_0 x_SLOAD_1 w_3 w_2 5 w)))
 (= ?x5375 ?x5889))))
 ))
 (let (($x5718 (forall ((n (_ BitVec 6)) )(let ((?x8807 (stack_s x_0 x_SLOAD_0 x_SLOAD_1 w_3 w_2 4 n)))
 (let ((?x7523 (stack_s x_0 x_SLOAD_0 x_SLOAD_1 w_3 w_2 5 n)))
 (or (bvsle (bvadd (_ bv61 6) (sc_s 4)) n) (= ?x7523 ?x8807)))))
 ))
 (let ((?x4305 (sc_s 4)))
 (let (($x7828 (= ?x805 ?x4305)))
 (let ((?x7175 (used_gas_s x_0 x_SLOAD_0 x_SLOAD_1 w_3 w_2 5)))
 (let (($x7300 (= ?x792 (stack_s x_0 x_SLOAD_0 x_SLOAD_1 w_3 w_2 4 (bvadd (_ bv62 6) ?x4305)))))
 (let ((?x129 (bvadd (_ bv63 6) ?x4305)))
 (let ((?x1931 (stack_s x_0 x_SLOAD_0 x_SLOAD_1 w_3 w_2 4 ?x129)))
 (let (($x2479 (= (stack_s x_0 x_SLOAD_0 x_SLOAD_1 w_3 w_2 5 (bvadd (_ bv61 6) ?x805)) ?x1931)))
 (let (($x7551 (= ?x9844 (stack_s x_0 x_SLOAD_0 x_SLOAD_1 w_3 w_2 4 (bvadd (_ bv61 6) ?x4305)))))
 (let (($x64 (exc_halt_s 4)))
 (let (($x2359 (= $x64 (or (exc_halt_s 3) (not (bvsle (_ bv0 6) (bvadd (_ bv63 6) (sc_s 3))))))))
 (let (($x7066 (forall ((w (_ BitVec 256)) )(let ((?x2858 (storage_s x_0 x_SLOAD_0 x_SLOAD_1 w_3 w_2 3 w)))
 (let ((?x5889 (storage_s x_0 x_SLOAD_0 x_SLOAD_1 w_3 w_2 4 w)))
 (= ?x5889 ?x2858))))
 ))
 (let (($x4934 (forall ((n (_ BitVec 6)) )(let ((?x8305 (stack_s x_0 x_SLOAD_0 x_SLOAD_1 w_3 w_2 3 n)))
 (let ((?x8807 (stack_s x_0 x_SLOAD_0 x_SLOAD_1 w_3 w_2 4 n)))
 (or (= ?x8807 ?x8305) (bvsle (bvadd (_ bv63 6) (sc_s 3)) n)))))
 ))
 (let ((?x114 (used_gas_s x_0 x_SLOAD_0 x_SLOAD_1 w_3 w_2 4)))
 (let ((?x5460 (storage_s x_0 x_SLOAD_0 x_SLOAD_1 w_3 w_2 3 (stack_s x_0 x_SLOAD_0 x_SLOAD_1 w_3 w_2 3 (bvadd (_ bv63 6) (sc_s 3))))))
 (let (($x247 (exc_halt_s 2)))
 (let (($x7704 (or $x247 (not (= ((_ extract 6 6) (bvadd (_ bv1 7) (concat (_ bv0 1) (sc_s 2)))) (_ bv0 1))))))
 (let (($x292 (exc_halt_s 3)))
 (let (($x1603 (forall ((w (_ BitVec 256)) )(let ((?x9228 (storage_s x_0 x_SLOAD_0 x_SLOAD_1 w_3 w_2 2 w)))
 (let ((?x2858 (storage_s x_0 x_SLOAD_0 x_SLOAD_1 w_3 w_2 3 w)))
 (= ?x2858 ?x9228))))
 ))
 (let (($x5759 (forall ((n (_ BitVec 6)) )(let ((?x7438 (stack_s x_0 x_SLOAD_0 x_SLOAD_1 w_3 w_2 2 n)))
 (let ((?x8305 (stack_s x_0 x_SLOAD_0 x_SLOAD_1 w_3 w_2 3 n)))
 (or (= ?x8305 ?x7438) (bvsle (sc_s 2) n)))))
 ))
 (let ((?x4958 (used_gas_s x_0 x_SLOAD_0 x_SLOAD_1 w_3 w_2 3)))
 (let (($x11665 (not (= ((_ extract 6 6) (bvadd (_ bv1 7) (concat (_ bv0 1) (sc_s 1)))) (_ bv0 1)))))
 (let (($x189 (exc_halt_s 1)))
 (let (($x5623 (forall ((w (_ BitVec 256)) )(let ((?x4550 (storage_s x_0 x_SLOAD_0 x_SLOAD_1 w_3 w_2 1 w)))
 (let ((?x9228 (storage_s x_0 x_SLOAD_0 x_SLOAD_1 w_3 w_2 2 w)))
 (= ?x9228 ?x4550))))
 ))
 (let (($x5946 (forall ((n (_ BitVec 6)) )(let ((?x7463 (stack_s x_0 x_SLOAD_0 x_SLOAD_1 w_3 w_2 1 n)))
 (let ((?x7438 (stack_s x_0 x_SLOAD_0 x_SLOAD_1 w_3 w_2 2 n)))
 (or (= ?x7438 ?x7463) (bvsle (sc_s 1) n)))))
 ))
 (let ((?x218 (sc_s 2)))
 (let (($x11460 (= ?x218 (bvadd (_ bv1 6) (sc_s 1)))))
 (let ((?x7075 (used_gas_s x_0 x_SLOAD_0 x_SLOAD_1 w_3 w_2 2)))
 (let (($x3953 (forall ((w (_ BitVec 256)) )(let ((?x7402 (storage_s x_0 x_SLOAD_0 x_SLOAD_1 w_3 w_2 0 w)))
 (let ((?x4550 (storage_s x_0 x_SLOAD_0 x_SLOAD_1 w_3 w_2 1 w)))
 (= ?x4550 ?x7402))))
 ))
 (let (($x775 (forall ((n (_ BitVec 6)) )(let ((?x1524 (stack_s x_0 x_SLOAD_0 x_SLOAD_1 w_3 w_2 0 n)))
 (let ((?x7463 (stack_s x_0 x_SLOAD_0 x_SLOAD_1 w_3 w_2 1 n)))
 (or (bvsle (bvadd (_ bv63 6) (sc_s 0)) n) (= ?x7463 ?x1524)))))
 ))
 (let ((?x8363 (storage_s x_0 x_SLOAD_0 x_SLOAD_1 w_3 w_2 0 (stack_s x_0 x_SLOAD_0 x_SLOAD_1 w_3 w_2 0 (bvadd (_ bv63 6) ?x72)))))
 (let (($x3822 (= (stack_s x_0 x_SLOAD_0 x_SLOAD_1 w_3 w_2 1 (bvadd (_ bv63 6) (sc_s 1))) ?x8363)))
 (let (($x9017 (forall ((w (_ BitVec 256)) )(let (($x2947 (= w (stack_s x_0 x_SLOAD_0 x_SLOAD_1 w_3 w_2 3 (bvadd (_ bv63 6) (sc_s 3))))))
 (let (($x8271 (= w (stack_s x_0 x_SLOAD_0 x_SLOAD_1 w_3 w_2 0 (bvadd (_ bv63 6) (sc_s 0))))))
 (let ((?x7402 (storage_s x_0 x_SLOAD_0 x_SLOAD_1 w_3 w_2 0 w)))
 (= ?x7402 (ite $x8271 x_SLOAD_0 (ite $x2947 x_SLOAD_1 (_ bv0 256))))))))
 ))
 (let (($x6093 (= ?x11317 0)))
 (let (($x11787 (not $x57)))
 (let (($x7890 (= (stack_s x_0 x_SLOAD_0 x_SLOAD_1 w_3 w_2 0 (_ bv0 6)) x_0)))
 (let (($x8685 (= ?x72 (_ bv1 6))))
 (and $x8685 $x7890 $x11787 $x6093 $x9017 $x3822 (= (used_gas_s x_0 x_SLOAD_0 x_SLOAD_1 w_3 w_2 1) (+ 200 ?x11317)) (= (sc_s 1) ?x72) $x775 $x3953 (= $x189 (or $x57 (not (bvsle (_ bv0 6) (bvadd (_ bv63 6) ?x72))))) (= (stack_s x_0 x_SLOAD_0 x_SLOAD_1 w_3 w_2 2 (sc_s 1)) w_3) (= ?x7075 (+ 3 (used_gas_s x_0 x_SLOAD_0 x_SLOAD_1 w_3 w_2 1))) $x11460 $x5946 $x5623 (= $x247 (or $x189 $x11665)) (= (stack_s x_0 x_SLOAD_0 x_SLOAD_1 w_3 w_2 3 ?x218) w_2) (= ?x4958 (+ 3 ?x7075)) (= (sc_s 3) (bvadd (_ bv1 6) ?x218)) $x5759 $x1603 (= $x292 $x7704) (= ?x1931 ?x5460) (= ?x114 (+ 200 ?x4958)) (= ?x4305 (sc_s 3)) $x4934 $x7066 $x2359 $x7551 $x2479 $x7300 (= ?x7175 (+ 3 ?x114)) $x7828 $x5718 $x6481 $x6811 $x2946 $x5976 $x3116 (= ?x926 ?x805) $x6015 $x2787 $x3359 (= (stack_t x_0 x_SLOAD_0 x_SLOAD_1 w_3 w_2 1 ?x63) w_2) (= (used_gas_t x_0 x_SLOAD_0 x_SLOAD_1 w_3 w_2 1) (+ 3 ?x11318)) $x5867 $x2568 $x5728 $x1553 (= ?x71 ?x7416) (= ?x2478 (+ 200 (used_gas_t x_0 x_SLOAD_0 x_SLOAD_1 w_3 w_2 1))) (= ?x4056 ?x4023) $x989 $x3909 $x4091 $x4774 $x7644 (= ?x5610 (+ 3 ?x2478)) (= ?x11842 ?x4056) $x5917 $x970 $x6290 $x6610 (= ?x6240 (+ 200 ?x5610)) $x9721 $x6395 $x978 $x5793 (= (stack_t x_0 x_SLOAD_0 x_SLOAD_1 w_3 w_2 5 ?x3757) w_3) $x6859 (= ?x919 (bvadd (_ bv1 6) ?x3757)) $x8957 $x9254 (= $x886 $x6754) $x73 $x1520 $x58 $x8516 $x11322 (not (and $x929 $x7343 $x889 $x3968)))))))))))))))))))))))))))))))))))))))))))))))))))))))))))))))))))))))))))))))))))))))))))))))))))))))))))))))
 )
(check-sat)
(get-proof)
